Maximize
obj:
x1 +
x2 +
x4 +
x5
Subject to
x1 <= 1
x2 <= 1
x1 + x2 - x0 >= 0
x0 <= 1
x4 <= 1
x5 <= 1
x4 + x5 - x3 >= 0
x3 <= 1
x1 + x4 <= 1
x2 + x4 <= 1
x2 + x5 <= 1
x4 + x1 <= 1
x5 + x1 <= 1
x5 + x2 <= 1
Binary
x1
x2
x4
x5
End
